p tw 43 91
5 16
5 7
5 14
5 11
10 17
10 12
10 18
10 16
14 18
14 17
1 2
1 10
1 43
1 14
1 17
1 16
1 12
6 15
9 12
2 8
2 4
2 10
2 42
2 3
2 13
12 13
8 9
8 13
8 17
8 18
4 9
4 12
4 19
4 17
4 8
15 20
24 38
24 35
24 27
24 39
24 30
24 37
24 34
25 34
25 27
25 37
25 29
29 30
21 29
21 35
21 39
33 37
33 34
28 34
28 37
13 18
41 42
17 20
32 36
32 41
32 35
34 39
34 40
34 36
22 34
22 31
22 40
27 34
7 16
7 17
3 20
35 38
35 43
35 40
35 36
16 41
16 19
11 19
11 20
26 34
26 30
26 40
26 38
26 29
23 32
23 40
23 28
23 27
23 24
36 42
36 40
